min: c;

c = 3.52480797621369 * u4_t1_h1 + 3.25928813119766 * u4_t1_h2 + 3.21341365233353 * u4_t1_h3 + 3.005477626076 * u4_t1_h4 + 3.005477626076 * u4_t10_h4 + 4.09316373943752 * u4_t1_h5 + 4.09316373943752 * u4_t10_h5 + 4.14162461139402 * u4_t1_h6 + 4.14162461139402 * u4_t10_h6 + 3.73405060989698 * u4_t1_h7 + 3.73405060989698 * u4_t10_h7 + 5.82650205473827 * u4_t1_h8 + 5.82650205473827 * u4_t9_h8 + 5.82650205473827 * u4_t10_h8 + 5.0384532544181 * u4_t9_h9 + 5.0384532544181 * u4_t10_h9 + 5.87340315654914 * u4_t9_h10 + 5.87340315654914 * u4_t10_h10 + 4.27928250909636 * u4_t2_h11 + 4.27928250909636 * u4_t4_h11 + 4.27928250909636 * u4_t9_h11 + 4.27928250909636 * u4_t10_h11 + 6.1667752484635 * u4_t2_h12 + 6.1667752484635 * u4_t3_h12 + 6.1667752484635 * u4_t4_h12 + 6.1667752484635 * u4_t8_h12 + 6.1667752484635 * u4_t9_h12 + 6.1667752484635 * u4_t10_h12 + 4.32707974294564 * u4_t2_h13 + 4.32707974294564 * u4_t3_h13 + 4.32707974294564 * u4_t4_h13 + 4.32707974294564 * u4_t8_h13 + 4.32707974294564 * u4_t9_h13 + 4.99974821869094 * u4_t2_h14 + 4.99974821869094 * u4_t3_h14 + 4.99974821869094 * u4_t4_h14 + 4.99974821869094 * u4_t8_h14 + 4.99974821869094 * u4_t9_h14 + 6.5887521382915 * u4_t2_h15 + 6.5887521382915 * u4_t3_h15 + 6.5887521382915 * u4_t4_h15 + 6.5887521382915 * u4_t8_h15 + 6.5887521382915 * u4_t9_h15 + 5.65531439961598 * u4_t2_h16 + 5.65531439961598 * u4_t3_h16 + 5.65531439961598 * u4_t4_h16 + 5.65531439961598 * u4_t5_h16 + 5.65531439961598 * u4_t8_h16 + 5.65531439961598 * u4_t9_h16 + 6.81046507922116 * u4_t2_h17 + 6.81046507922116 * u4_t3_h17 + 6.81046507922116 * u4_t5_h17 + 6.81046507922116 * u4_t8_h17 + 6.81046507922116 * u4_t9_h17 + 6.78229254415029 * u4_t2_h18 + 6.78229254415029 * u4_t3_h18 + 6.78229254415029 * u4_t5_h18 + 6.78229254415029 * u4_t8_h18 + 6.78229254415029 * u4_t9_h18 + 5.96641193547393 * u4_t2_h19 + 5.96641193547393 * u4_t3_h19 + 5.96641193547393 * u4_t6_h19 + 5.96641193547393 * u4_t8_h19 + 5.96641193547393 * u4_t9_h19 + 5.47445557358605 * u4_t2_h20 + 5.47445557358605 * u4_t6_h20 + 5.47445557358605 * u4_t9_h20 + 5.54465447505894 * u4_t6_h21 + 5.4102935432139 * u4_t6_h22 + 5.4102935432139 * u4_t7_h22 + 4.98423601409188 * u4_t6_h23 + 4.98423601409188 * u4_t7_h23;
0 <= u4_t1_h1 <= 1;
0 <= u4_t1_h2 <= 1;
0 <= u4_t1_h3 <= 1;
0 <= u4_t1_h4 <= 1;
0 <= u4_t1_h5 <= 1;
0 <= u4_t1_h6 <= 1;
0 <= u4_t1_h7 <= 1;
0 <= u4_t1_h8 <= 1;
u4_t1_h1 + u4_t1_h2 + u4_t1_h3 + u4_t1_h4 + u4_t1_h5 + u4_t1_h6 + u4_t1_h7 + u4_t1_h8 = 1;
0 <= u4_t2_h11 <= 1;
0 <= u4_t2_h12 <= 1;
0 <= u4_t2_h13 <= 1;
0 <= u4_t2_h14 <= 1;
0 <= u4_t2_h15 <= 1;
0 <= u4_t2_h16 <= 1;
0 <= u4_t2_h17 <= 1;
0 <= u4_t2_h18 <= 1;
0 <= u4_t2_h19 <= 1;
0 <= u4_t2_h20 <= 1;
u4_t2_h11 + u4_t2_h12 + u4_t2_h13 + u4_t2_h14 + u4_t2_h15 + u4_t2_h16 + u4_t2_h17 + u4_t2_h18 + u4_t2_h19 + u4_t2_h20 = 2;
0 <= u4_t3_h12 <= 1;
0 <= u4_t3_h13 <= 1;
0 <= u4_t3_h14 <= 1;
0 <= u4_t3_h15 <= 1;
0 <= u4_t3_h16 <= 1;
0 <= u4_t3_h17 <= 1;
0 <= u4_t3_h18 <= 1;
0 <= u4_t3_h19 <= 1;
u4_t3_h12 + u4_t3_h13 + u4_t3_h14 + u4_t3_h15 + u4_t3_h16 + u4_t3_h17 + u4_t3_h18 + u4_t3_h19 = 3;
0 <= u4_t4_h11 <= 1;
0 <= u4_t4_h12 <= 1;
0 <= u4_t4_h13 <= 1;
0 <= u4_t4_h14 <= 1;
0 <= u4_t4_h15 <= 1;
0 <= u4_t4_h16 <= 1;
u4_t4_h11 + u4_t4_h12 + u4_t4_h13 + u4_t4_h14 + u4_t4_h15 + u4_t4_h16 = 3;
0 <= u4_t5_h16 <= 1;
0 <= u4_t5_h17 <= 1;
0 <= u4_t5_h18 <= 1;
u4_t5_h16 + u4_t5_h17 + u4_t5_h18 = 1;
0 <= u4_t6_h19 <= 1;
0 <= u4_t6_h20 <= 1;
0 <= u4_t6_h21 <= 1;
0 <= u4_t6_h22 <= 1;
0 <= u4_t6_h23 <= 1;
u4_t6_h19 + u4_t6_h20 + u4_t6_h21 + u4_t6_h22 + u4_t6_h23 = 3;
0 <= u4_t7_h22 <= 1;
0 <= u4_t7_h23 <= 1;
u4_t7_h22 + u4_t7_h23 = 1;
0 <= u4_t8_h12 <= 1;
0 <= u4_t8_h13 <= 1;
0 <= u4_t8_h14 <= 1;
0 <= u4_t8_h15 <= 1;
0 <= u4_t8_h16 <= 1;
0 <= u4_t8_h17 <= 1;
0 <= u4_t8_h18 <= 1;
0 <= u4_t8_h19 <= 1;
u4_t8_h12 + u4_t8_h13 + u4_t8_h14 + u4_t8_h15 + u4_t8_h16 + u4_t8_h17 + u4_t8_h18 + u4_t8_h19 = 2;
0 <= u4_t9_h8 <= 1;
0 <= u4_t9_h9 <= 1;
0 <= u4_t9_h10 <= 1;
0 <= u4_t9_h11 <= 1;
0 <= u4_t9_h12 <= 1;
0 <= u4_t9_h13 <= 1;
0 <= u4_t9_h14 <= 1;
0 <= u4_t9_h15 <= 1;
0 <= u4_t9_h16 <= 1;
0 <= u4_t9_h17 <= 1;
0 <= u4_t9_h18 <= 1;
0 <= u4_t9_h19 <= 1;
0 <= u4_t9_h20 <= 1;
u4_t9_h8 + u4_t9_h9 + u4_t9_h10 + u4_t9_h11 + u4_t9_h12 + u4_t9_h13 + u4_t9_h14 + u4_t9_h15 + u4_t9_h16 + u4_t9_h17 + u4_t9_h18 + u4_t9_h19 + u4_t9_h20 = 2;
0 <= u4_t10_h4 <= 1;
0 <= u4_t10_h5 <= 1;
0 <= u4_t10_h6 <= 1;
0 <= u4_t10_h7 <= 1;
0 <= u4_t10_h8 <= 1;
0 <= u4_t10_h9 <= 1;
0 <= u4_t10_h10 <= 1;
0 <= u4_t10_h11 <= 1;
0 <= u4_t10_h12 <= 1;
u4_t10_h4 + u4_t10_h5 + u4_t10_h6 + u4_t10_h7 + u4_t10_h8 + u4_t10_h9 + u4_t10_h10 + u4_t10_h11 + u4_t10_h12 = 2;
